SAT
-1 -100 -99 -98 -97 -86 -96 -95 94 -24 -32 9 -53 -62 -22 39 -64 -45 -84 34 82 50 75 20 -69 36 -52 78 3 71 93 -65 -7 76 85 16 80 60 55 -89 -28 74 -44 -19 21 -14 25 -72 -18 23 -13 -90 -47 15 51 68 -41 -73 26 -77 -27 8 -92 31 37 87 -30 91 -33 35 -83 -4 -43 54 -5 -10 -67 -17 -2 70 48 79 -57 -12 6 88 -56 11 -61 -46 -81 -29 -38 -42 -58 -66 -63 -49 -59 40 0
